116
0 98 112 54 41 24 25 105 86 110 
6 31 59 55 29 38 107 65 42 93 
74 96 69 43 2 90 113 97 19 80 
5 104 52 4 76 36 88 114 51 11 
91 75 63 72 58 37 30 9 39 115 
49 48 84 62 78 53 45 46 10 27 
82 73 89 64 83 94 56 61 1 100 
44 12 21 16 33 109 26 81 111 99 
67 20 15 92 35 66 23 68 87 108 
50 102 28 79 101 40 34 103 17 71 
85 8 57 7 106 3 77 47 13 60 
14 22 18 70 32 95 
